\ENCODING=ISO-8859-1
\Problem name: instances

Maximize
 obj:
Subject To
 c1: 89 x1 + 99 x2 + 66 x3 - 7 x4 - 90 x5 + 61 x6 + 85 x7 + 58 x9 + 89 x10
     <= 421
 c2: 50 x1 + 38 x2 + 5 x3 + 73 x5 + 100 x6 + 52 x7 + 96 x8 + 58 x9 + 39 x10
     <= 373
 c3: 11 x1 + 59 x2 + 43 x3 - 69 x4 + 97 x5 + 93 x6 + 81 x7 + 96 x8 + 43 x9
     <= 290
 c4: 85 x1 + 58 x2 - 51 x3 - 36 x4 + 41 x5 + 59 x6 + 58 x7 - 100 x9 + 36 x10
     <= 18
 c5: 59 x1 + 67 x2 + 92 x3 + 24 x4 + 77 x5 + 41 x6 + 35 x7 + 100 x8 + x9
     + 33 x10 <= 275
Bounds
      x1 >= 0
      x2 >= 0
      x3 >= 0
      x4 >= 0
      x5 >= 0
      x6 >= 0
      x7 >= 0
      x8 >= 0
      x9 >= 0
      x10 >= 0
Generals
 x1  x2  x3  x4  x5  x6  x7  x8  x9  x10 
End
